NAME : B-n63-k10
COMMENT : (Augerat et al, Min no of trucks: 10, Best value: 1537)
TYPE : CVRP
DIMENSION : 63
EDGE_WEIGHT_TYPE : EUC_2D 
CAPACITY : 100
NODE_COORD_SECTION 
1 73 89
2 97 22
3 19 31
4 23 95
5 18 89
6 60 94
7 9 26
8 71 7
9 10 80
10 27 64
11 46 32
12 26 0
13 8 8
14 63 101
15 16 10
16 30 69
17 26 103
18 20 0
19 99 32
20 16 33
21 79 13
22 18 30
23 27 41
24 34 4
25 19 0
26 12 33
27 11 28
28 101 0
29 69 98
30 69 102
31 15 81
DEMAND_SECTION 
1 0 
2 18 
3 11 
4 18 
5 17 
6 21 
7 6 
8 12 
9 6 
10 21 
11 14 
12 2 
13 5 
14 12 
15 23 
16 23 
17 19 
18 18 
19 8 
20 21 
21 7 
22 19 
23 18 
24 7 
25 6 
26 12 
27 21 
28 6 
29 21 
30 20 
31 18
DEPOT_SECTION 
1  
-1  
EOF 
